c description: Random 2-CNF over 15 variables and 65 clauses
c generator: CNFgen (0.9.0)
c copyright: (C) 2012-2020 Massimo Lauria <massimo.lauria@uniroma1.it>
c url: https://massimolauria.net/cnfgen
c
p cnf 15 65
4 -12 0
-7 11 0
1 -2 0
-6 -7 0
10 -11 0
-2 3 0
-2 10 0
-5 -6 0
4 11 0
-8 13 0
4 7 0
-6 -11 0
13 -15 0
2 5 0
6 14 0
-8 12 0
-3 4 0
-1 -10 0
-4 -9 0
1 2 0
8 -9 0
7 -10 0
8 -11 0
-5 -11 0
5 9 0
-8 -15 0
2 -14 0
-5 12 0
1 -12 0
12 -14 0
9 -12 0
4 5 0
6 8 0
2 8 0
3 -9 0
1 12 0
-1 6 0
11 12 0
-4 6 0
7 9 0
8 -12 0
-3 14 0
13 15 0
5 -15 0
-8 -13 0
-2 -4 0
-4 -10 0
-5 -7 0
5 -12 0
-3 9 0
-6 -13 0
-12 -14 0
6 15 0
-6 -15 0
9 12 0
3 -14 0
-1 -9 0
3 -6 0
6 10 0
10 15 0
2 4 0
-3 8 0
-3 5 0
-3 12 0
1 -6 0